12 
36 62 42 40 69 72 63 
32 
45 53 66 55 75 31 7 58 20 
30 
41 49 
64 38 9 51 13 16 59 
2 10 35 
33 14 1 23 27 61 15 8 26 3 4 24 37 17 5 71 48 
50 11 
43 34 39 60 67 74 
44 47 21 
65 22 19 52 18 56 6 57 68 29 25 54 70 46 73 28 
